c Result of efficient AIG-to-CNF conversion using package CNF
p cnf 195 768
-2 3 128 0
-2 -3 -128 0
2 -3 128 0
2 3 -128 0
-3 4 56 0
-3 -4 -56 0
3 -4 56 0
3 4 -56 0
-4 -5 -33 0
-4 5 33 0
4 5 -33 0
4 -5 33 0
-5 -6 -17 0
-5 6 17 0
5 6 -17 0
5 -6 17 0
-6 -7 -9 0
-6 7 9 0
6 7 -9 0
6 -7 9 0
-7 8 0
7 -8 0
8 186 -188 -194 0
8 -188 191 -194 0
-8 194 0
-8 188 0
-8 -186 -191 0
9 -10 -13 0
-9 10 0
-9 13 0
-10 -11 -12 0
-10 11 12 0
10 11 -12 0
10 -11 12 0
11 -186 -188 0
-11 186 0
-11 188 0
12 -191 -194 0
-12 191 0
-12 194 0
-13 14 16 0
-13 15 16 0
-13 14 15 0
13 -14 -15 0
13 -15 -16 0
13 -14 -16 0
14 -188 -189 0
-14 188 0
-14 189 0
15 -186 -191 0
-15 186 0
-15 191 0
16 -187 -194 0
-16 187 0
-16 194 0
17 -18 -19 0
-17 18 0
-17 19 0
-18 10 13 0
-18 -10 -13 0
18 -10 13 0
18 10 -13 0
-19 20 22 0
-19 22 32 0
-19 20 32 0
19 -20 -32 0
19 -22 -32 0
19 -20 -22 0
-20 -21 -16 0
-20 21 16 0
20 21 -16 0
20 -21 16 0
-21 -14 -15 0
-21 14 15 0
21 14 -15 0
21 -14 15 0
-22 23 30 0
-22 24 25 0
-22 24 30 0
-22 23 25 0
22 -23 -24 0
22 -25 -30 0
23 -188 -190 0
-23 188 0
-23 190 0
24 -188 -190 -191 -192 0
-24 192 0
-24 188 0
-24 191 0
-24 190 0
-25 -26 -29 0
-25 26 29 0
25 26 -29 0
25 -26 29 0
-26 -27 -28 0
-26 27 28 0
26 27 -28 0
26 -27 28 0
27 -189 -191 0
-27 189 0
-27 191 0
28 -186 -187 0
-28 186 0
-28 187 0
29 -193 -194 0
-29 193 0
-29 194 0
-30 31 0
30 -31 0
31 -23 24 0
-31 23 0
-31 -24 0
-32 27 29 0
-32 28 29 0
-32 27 28 0
32 -27 -28 0
32 -28 -29 0
32 -27 -29 0
33 -34 -35 0
-33 34 0
-33 35 0
-34 18 19 0
-34 -18 -19 0
34 -18 19 0
34 18 -19 0
35 -36 -38 0
-35 36 0
-35 38 0
-36 32 37 0
-36 -32 -37 0
36 -32 37 0
36 32 -37 0
-37 20 22 0
-37 -20 -22 0
37 -20 22 0
37 20 -22 0
-38 39 40 0
-38 40 55 0
-38 39 55 0
38 -39 -55 0
38 -40 -55 0
38 -39 -40 0
-39 25 30 0
-39 -25 -30 0
39 -25 30 0
39 25 -30 0
-40 41 44 0
-40 44 50 0
-40 41 50 0
40 -41 -50 0
40 -44 -50 0
40 -41 -44 0
-41 -42 -43 0
-41 42 43 0
41 42 -43 0
41 -42 43 0
42 -188 -192 0
-42 188 0
-42 192 0
43 -190 -191 0
-43 190 0
-43 191 0
-44 45 46 0
-44 45 47 0
44 -45 0
44 -46 -47 0
45 -184 -188 -191 -192 0
-45 192 0
-45 184 0
-45 191 0
-45 188 0
46 -187 -190 0
-46 187 0
-46 190 0
-47 -48 -49 0
-47 48 49 0
47 48 -49 0
47 -48 49 0
48 -184 -188 0
-48 184 0
-48 188 0
49 -191 -192 0
-49 191 0
-49 192 0
-50 -51 -54 0
-50 51 54 0
50 51 -54 0
50 -51 54 0
-51 -52 -53 0
-51 52 53 0
51 52 -53 0
51 -52 53 0
52 -187 -189 0
-52 187 0
-52 189 0
53 -186 -193 0
-53 186 0
-53 193 0
54 -183 -194 0
-54 183 0
-54 194 0
-55 52 54 0
-55 53 54 0
-55 52 53 0
55 -52 -53 0
55 -53 -54 0
55 -52 -54 0
-56 57 58 102 0
-56 57 81 102 0
-56 58 81 102 0
56 -57 -58 0
56 -58 -81 0
56 -102 0
56 -57 -81 0
-57 -34 -35 0
-57 34 35 0
57 34 -35 0
57 -34 35 0
58 -59 -60 0
-58 59 0
-58 60 0
-59 36 38 0
-59 -36 -38 0
59 -36 38 0
59 36 -38 0
60 -61 -63 0
-60 61 0
-60 63 0
-61 55 62 0
-61 -55 -62 0
61 -55 62 0
61 55 -62 0
-62 39 40 0
-62 -39 -40 0
62 -39 40 0
62 39 -40 0
-63 64 66 0
-63 66 80 0
-63 64 80 0
63 -64 -80 0
63 -66 -80 0
63 -64 -66 0
-64 50 65 0
-64 -50 -65 0
64 -50 65 0
64 50 -65 0
-65 41 44 0
-65 -41 -44 0
65 -41 44 0
65 41 -44 0
-66 68 74 0
-66 67 79 0
-66 67 74 0
-66 68 79 0
66 -74 -79 0
66 -67 -68 0
-67 46 47 0
-67 -46 -47 0
67 -46 47 0
67 46 -47 0
-68 69 70 0
-68 69 71 0
68 -69 0
68 -70 -71 0
69 -184 -187 -191 -192 0
-69 192 0
-69 184 0
-69 191 0
-69 187 0
70 -190 -193 0
-70 190 0
-70 193 0
-71 -72 -73 0
-71 72 73 0
71 72 -73 0
71 -72 73 0
72 -184 -191 0
-72 184 0
-72 191 0
73 -187 -192 0
-73 187 0
-73 192 0
-74 -75 -78 0
-74 75 78 0
74 75 -78 0
74 -75 78 0
-75 -76 -77 0
-75 76 77 0
75 76 -77 0
75 -76 77 0
76 -189 -193 0
-76 189 0
-76 193 0
77 -183 -186 0
-77 183 0
-77 186 0
78 -185 -194 0
-78 185 0
-78 194 0
-79 67 68 0
-79 -67 -68 0
79 -67 68 0
79 67 -68 0
-80 76 78 0
-80 77 78 0
-80 76 77 0
80 -76 -77 0
80 -77 -78 0
80 -76 -78 0
81 -82 -83 0
-81 82 0
-81 83 0
-82 -59 -60 0
-82 59 60 0
82 59 -60 0
82 -59 60 0
83 -84 -85 0
-83 84 0
-83 85 0
-84 61 63 0
-84 -61 -63 0
84 -61 63 0
84 61 -63 0
85 -86 -88 0
-85 86 0
-85 88 0
-86 80 87 0
-86 -80 -87 0
86 -80 87 0
86 80 -87 0
-87 64 66 0
-87 -64 -66 0
87 -64 66 0
87 64 -66 0
-88 89 90 0
-88 90 101 0
-88 89 101 0
88 -90 -101 0
88 -89 -90 0
88 -89 -101 0
-89 74 79 0
-89 -74 -79 0
89 -74 79 0
89 74 -79 0
-90 91 92 0
-90 92 98 0
-90 91 98 0
90 -91 -98 0
90 -92 -98 0
90 -91 -92 0
-91 70 71 0
-91 -70 -71 0
91 -70 71 0
91 70 -71 0
-92 93 94 0
-92 93 95 0
92 -93 0
92 -94 -95 0
93 -184 -187 -192 -193 0
-93 193 0
-93 184 0
-93 192 0
-93 187 0
94 -183 -190 0
-94 183 0
-94 190 0
-95 -96 -97 0
-95 96 97 0
95 96 -97 0
95 -96 97 0
96 -184 -187 0
-96 184 0
-96 187 0
97 -192 -193 0
-97 192 0
-97 193 0
-98 -99 -100 0
-98 99 100 0
98 99 -100 0
98 -99 100 0
99 -183 -189 0
-99 183 0
-99 189 0
100 -185 -186 0
-100 185 0
-100 186 0
101 -99 -100 0
-101 99 0
-101 100 0
102 -103 -82 83 -104 0
102 -103 82 -83 -104 0
-102 104 0
-102 82 83 0
-102 103 0
-102 -82 -83 0
-103 -57 -58 0
-103 57 58 0
103 57 -58 0
103 -57 58 0
-104 106 121 0
-104 105 106 0
-104 105 121 0
104 -105 -106 0
104 -106 -121 0
104 -105 -121 0
-105 -84 -85 0
-105 84 85 0
105 84 -85 0
105 -84 85 0
106 -107 -108 0
-106 107 0
-106 108 0
-107 86 88 0
-107 -86 -88 0
107 -86 88 0
107 86 -88 0
108 -109 -111 0
-108 109 0
-108 111 0
-109 101 110 0
-109 -101 -110 0
109 -101 110 0
109 101 -110 0
-110 89 90 0
-110 -89 -90 0
110 -89 90 0
110 89 -90 0
111 -112 -114 0
-111 112 0
-111 114 0
-112 98 113 0
-112 -98 -113 0
112 -98 113 0
112 98 -113 0
-113 91 92 0
-113 -91 -92 0
113 -91 92 0
113 91 -92 0
-114 115 116 0
-114 116 120 0
-114 115 120 0
114 -116 -120 0
114 -115 -116 0
114 -115 -120 0
-115 94 95 0
-115 -94 -95 0
115 -94 95 0
115 94 -95 0
-116 117 119 0
-116 118 119 0
-116 117 118 0
116 -117 -118 0
116 -118 -119 0
116 -117 -119 0
117 -184 -193 0
-117 184 0
-117 193 0
118 -183 -192 0
-118 183 0
-118 192 0
119 -185 -190 0
-119 185 0
-119 190 0
120 -185 -189 0
-120 185 0
-120 189 0
121 107 -108 -122 0
121 -107 108 -122 0
-121 122 0
-121 107 108 0
-121 -107 -108 0
122 -109 112 -114 -123 0
122 -109 -112 114 -123 0
-122 123 0
-122 112 114 0
-122 109 0
-122 -112 -114 0
123 120 -124 -125 -127 0
123 -120 124 -125 -127 0
-123 125 0
-123 120 124 0
-123 127 0
-123 -120 -124 0
-124 115 116 0
-124 -115 -116 0
124 -115 116 0
124 115 -116 0
-125 119 126 0
-125 -119 -126 0
125 -119 126 0
125 119 -126 0
-126 -117 -118 0
-126 117 118 0
126 117 -118 0
126 -117 118 0
127 -183 -184 -185 -192 0
-127 192 0
-127 183 0
-127 185 0
-127 184 0
-128 129 133 0
-128 -129 -133 0
128 -129 133 0
128 129 -133 0
-129 130 131 0
-129 -130 -131 0
129 -130 131 0
129 130 -131 0
130 -188 -194 0
-130 188 0
-130 194 0
-131 12 132 0
-131 11 12 0
-131 11 132 0
131 -11 -12 0
131 -12 -132 0
131 -11 -132 0
-132 14 16 0
-132 15 16 0
-132 14 15 0
132 -14 -15 0
132 -15 -16 0
132 -14 -16 0
-133 134 135 0
-133 135 141 0
-133 134 141 0
133 -134 -141 0
133 -135 -141 0
133 -134 -135 0
-134 10 132 0
-134 -10 -132 0
134 -10 132 0
134 10 -132 0
-135 136 137 0
-135 137 139 0
-135 136 139 0
135 -136 -139 0
135 -137 -139 0
135 -136 -137 0
-136 23 29 0
-136 27 29 0
-136 23 27 0
136 -23 -27 0
136 -27 -29 0
136 -23 -29 0
-137 15 138 0
-137 -15 -138 0
137 -15 138 0
137 15 -138 0
-138 -14 -16 0
-138 14 16 0
138 14 -16 0
138 -14 16 0
-139 28 140 0
-139 24 28 0
-139 24 140 0
139 -24 -28 0
139 -28 -140 0
139 -24 -140 0
-140 189 54 0
-140 187 53 0
-140 53 54 0
-140 189 53 0
-140 187 54 0
140 -53 -54 0
140 -187 -189 -54 0
140 -187 -189 -53 0
-141 142 144 0
-141 144 151 0
-141 142 151 0
141 -142 -151 0
141 -144 -151 0
141 -142 -144 0
-142 139 143 0
-142 -139 -143 0
142 -139 143 0
142 139 -143 0
-143 136 137 0
-143 -136 -137 0
143 -136 137 0
143 136 -137 0
-144 145 147 0
-144 147 149 0
-144 145 149 0
144 -145 -149 0
144 -147 -149 0
144 -145 -147 0
-145 27 146 0
-145 -27 -146 0
145 -27 146 0
145 27 -146 0
-146 -23 -29 0
-146 23 29 0
146 23 -29 0
146 -23 29 0
-147 41 148 0
-147 41 45 0
-147 45 148 0
147 -45 -148 0
147 -41 -148 0
147 -41 -45 0
-148 46 78 0
-148 76 78 0
-148 46 76 0
148 -46 -76 0
148 -76 -78 0
148 -46 -78 0
-149 140 150 0
-149 -140 -150 0
149 -140 150 0
149 140 -150 0
-150 -24 -28 0
-150 24 28 0
150 24 -28 0
150 -24 28 0
-151 152 156 0
-151 156 158 0
-151 152 158 0
151 -152 -158 0
151 -156 -158 0
151 -152 -156 0
-152 50 153 0
-152 153 154 0
-152 50 154 0
152 -50 -154 0
152 -153 -154 0
152 -50 -153 0
-153 69 77 0
-153 47 69 0
-153 47 77 0
153 -47 -69 0
153 -69 -77 0
153 -47 -77 0
-154 148 155 0
-154 -148 -155 0
154 -148 155 0
154 148 -155 0
-155 -41 -45 0
-155 41 45 0
155 41 -45 0
155 -41 45 0
-156 149 157 0
-156 -149 -157 0
156 -149 157 0
156 149 -157 0
-157 145 147 0
-157 -145 -147 0
157 -145 147 0
157 145 -147 0
-158 159 165 0
-158 165 167 0
-158 159 167 0
158 -159 -167 0
158 -165 -167 0
158 -159 -165 0
-159 160 161 0
-159 161 163 0
-159 160 163 0
159 -160 -163 0
159 -161 -163 0
159 -160 -161 0
-160 70 100 0
-160 99 100 0
-160 70 99 0
160 -70 -99 0
160 -99 -100 0
160 -70 -100 0
-161 76 162 0
-161 -76 -162 0
161 -76 162 0
161 76 -162 0
-162 -46 -78 0
-162 46 78 0
162 46 -78 0
162 -46 78 0
-163 47 164 0
-163 -47 -164 0
163 -47 164 0
163 47 -164 0
-164 -69 -77 0
-164 69 77 0
164 69 -77 0
164 -69 77 0
-165 154 166 0
-165 -154 -166 0
165 -154 166 0
165 154 -166 0
-166 50 153 0
-166 -50 -153 0
166 -50 153 0
166 50 -153 0
-167 168 171 0
-167 171 173 0
-167 168 173 0
167 -168 -173 0
167 -171 -173 0
167 -168 -171 0
-168 71 169 0
-168 71 93 0
-168 93 169 0
168 -93 -169 0
168 -71 -169 0
168 -71 -93 0
-169 99 170 0
-169 -99 -170 0
169 -99 170 0
169 99 -170 0
-170 -70 -100 0
-170 70 100 0
170 70 -100 0
170 -70 100 0
-171 163 172 0
-171 -163 -172 0
171 -163 172 0
171 163 -172 0
-172 160 161 0
-172 -160 -161 0
172 -160 161 0
172 160 -161 0
-173 174 176 0
-173 176 178 0
-173 174 178 0
173 -174 -178 0
173 -176 -178 0
173 -174 -176 0
-174 94 175 0
-174 120 175 0
-174 94 120 0
174 -94 -120 0
174 -120 -175 0
174 -94 -175 0
175 -118 -119 0
-175 118 0
-175 119 0
-176 169 177 0
-176 -169 -177 0
176 -169 177 0
176 169 -177 0
-177 -71 -93 0
-177 71 93 0
177 71 -93 0
177 -71 93 0
-178 95 179 0
-178 179 181 0
-178 95 181 0
178 -95 -181 0
178 -179 -181 0
178 -95 -179 0
-179 175 180 0
-179 -175 -180 0
179 -175 180 0
179 175 -180 0
-180 -94 -120 0
-180 94 120 0
180 94 -120 0
180 -94 120 0
-181 127 182 0
-181 117 127 0
-181 117 182 0
181 -117 -127 0
181 -127 -182 0
181 -117 -182 0
-182 -118 -119 0
-182 118 119 0
182 118 -119 0
182 -118 119 0
-195 0
2 0

